Using license file /home/benedond/gurobi.lic
Using gurobi.env file
Set parameter Threads to value 1
Academic license - for non-commercial use only
Changed value of parameter TimeLimit to 300.0
   Prev: inf  Min: 0.0  Max: inf  Default: inf
Gurobi Optimizer version 9.0.1 build v9.0.1rc0 (linux64)
Optimize a model with 101 rows, 75 columns and 315 nonzeros
Model fingerprint: 0xc9cd4ec0
Variable types: 10 continuous, 65 integer (65 binary)
Coefficient statistics:
  Matrix range     [3e-01, 4e+02]
  Objective range  [2e-01, 2e+00]
  Bounds range     [1e+00, 1e+00]
  RHS range        [1e+00, 2e+02]
Found heuristic solution: objective 4.0711112
Presolve removed 101 rows and 75 columns
Presolve time: 0.00s
Presolve: All rows and columns removed

Explored 0 nodes (0 simplex iterations) in 0.00 seconds
Thread count was 1 (of 4 available processors)

Solution count 2: 3.43117 

Optimal solution found (tolerance 1.00e-04)
Best objective 3.431166708635e+00, best bound 3.431166708635e+00, gap 0.0000%
